NAME          
ROWS
 N  OBJ
 L  c1
 L  c2
 L  c3
COLUMNS
    MARKER    'MARKER'                 'INTORG'
    x[1]      c1        86
    x[1]      c2        566
    x[1]      c3        605
    x[1]      OBJ       -557
    x[2]      c1        129
    x[2]      c2        397
    x[2]      c3        386
    x[2]      OBJ       -247
    x[3]      c1        975
    x[3]      c2        602
    x[3]      c3        269
    x[3]      OBJ       -35
    x[4]      c1        45
    x[4]      c2        988
    x[4]      c3        825
    x[4]      OBJ       -357
    x[5]      c1        331
    x[5]      c2        630
    x[5]      c3        909
    x[5]      OBJ       -917
    x[6]      c1        626
    x[6]      c2        768
    x[6]      c3        343
    x[6]      OBJ       -197
    x[7]      c1        948
    x[7]      c2        288
    x[7]      c3        235
    x[7]      OBJ       -394
    x[8]      c1        1000
    x[8]      c2        42
    x[8]      c3        259
    x[8]      OBJ       -930
    x[9]      c1        330
    x[9]      c2        790
    x[9]      c3        357
    x[9]      OBJ       -9
    x[10]     c1        491
    x[10]     c2        168
    x[10]     c3        647
    x[10]     OBJ       -965
RHS
    rhs       c1        2480
    rhs       c2        2620
    rhs       c3        2418
RANGES
BOUNDS
 LO bounds    x[1]      0
 PL bounds    x[1]
 LO bounds    x[2]      0
 PL bounds    x[2]
 LO bounds    x[3]      0
 PL bounds    x[3]
 LO bounds    x[4]      0
 PL bounds    x[4]
 LO bounds    x[5]      0
 PL bounds    x[5]
 LO bounds    x[6]      0
 PL bounds    x[6]
 LO bounds    x[7]      0
 PL bounds    x[7]
 LO bounds    x[8]      0
 PL bounds    x[8]
 LO bounds    x[9]      0
 PL bounds    x[9]
 LO bounds    x[10]     0
 PL bounds    x[10]
ENDATA
